p cnf 190 955
-1 -2 0
-1 -3 0
-1 -4 0
-1 -5 0
-1 -6 0
-1 -7 0
-1 -8 0
-1 -9 0
-1 -10 0
-2 -3 0
-2 -4 0
-2 -5 0
-2 -6 0
-2 -7 0
-2 -8 0
-2 -9 0
-2 -10 0
-3 -4 0
-3 -5 0
-3 -6 0
-3 -7 0
-3 -8 0
-3 -9 0
-3 -10 0
-4 -5 0
-4 -6 0
-4 -7 0
-4 -8 0
-4 -9 0
-4 -10 0
-5 -6 0
-5 -7 0
-5 -8 0
-5 -9 0
-5 -10 0
-6 -7 0
-6 -8 0
-6 -9 0
-6 -10 0
-7 -8 0
-7 -9 0
-7 -10 0
-8 -9 0
-8 -10 0
-9 -10 0
-11 -12 0
-11 -13 0
-11 -14 0
-11 -15 0
-11 -16 0
-11 -17 0
-11 -18 0
-11 -19 0
-11 -20 0
-12 -13 0
-12 -14 0
-12 -15 0
-12 -16 0
-12 -17 0
-12 -18 0
-12 -19 0
-12 -20 0
-13 -14 0
-13 -15 0
-13 -16 0
-13 -17 0
-13 -18 0
-13 -19 0
-13 -20 0
-14 -15 0
-14 -16 0
-14 -17 0
-14 -18 0
-14 -19 0
-14 -20 0
-15 -16 0
-15 -17 0
-15 -18 0
-15 -19 0
-15 -20 0
-16 -17 0
-16 -18 0
-16 -19 0
-16 -20 0
-17 -18 0
-17 -19 0
-17 -20 0
-18 -19 0
-18 -20 0
-19 -20 0
-21 -22 0
-21 -23 0
-21 -24 0
-21 -25 0
-21 -26 0
-21 -27 0
-21 -28 0
-21 -29 0
-21 -30 0
-22 -23 0
-22 -24 0
-22 -25 0
-22 -26 0
-22 -27 0
-22 -28 0
-22 -29 0
-22 -30 0
-23 -24 0
-23 -25 0
-23 -26 0
-23 -27 0
-23 -28 0
-23 -29 0
-23 -30 0
-24 -25 0
-24 -26 0
-24 -27 0
-24 -28 0
-24 -29 0
-24 -30 0
-25 -26 0
-25 -27 0
-25 -28 0
-25 -29 0
-25 -30 0
-26 -27 0
-26 -28 0
-26 -29 0
-26 -30 0
-27 -28 0
-27 -29 0
-27 -30 0
-28 -29 0
-28 -30 0
-29 -30 0
-31 -32 0
-31 -33 0
-31 -34 0
-31 -35 0
-31 -36 0
-31 -37 0
-31 -38 0
-31 -39 0
-31 -40 0
-32 -33 0
-32 -34 0
-32 -35 0
-32 -36 0
-32 -37 0
-32 -38 0
-32 -39 0
-32 -40 0
-33 -34 0
-33 -35 0
-33 -36 0
-33 -37 0
-33 -38 0
-33 -39 0
-33 -40 0
-34 -35 0
-34 -36 0
-34 -37 0
-34 -38 0
-34 -39 0
-34 -40 0
-35 -36 0
-35 -37 0
-35 -38 0
-35 -39 0
-35 -40 0
-36 -37 0
-36 -38 0
-36 -39 0
-36 -40 0
-37 -38 0
-37 -39 0
-37 -40 0
-38 -39 0
-38 -40 0
-39 -40 0
-41 -42 0
-41 -43 0
-41 -44 0
-41 -45 0
-41 -46 0
-41 -47 0
-41 -48 0
-41 -49 0
-41 -50 0
-42 -43 0
-42 -44 0
-42 -45 0
-42 -46 0
-42 -47 0
-42 -48 0
-42 -49 0
-42 -50 0
-43 -44 0
-43 -45 0
-43 -46 0
-43 -47 0
-43 -48 0
-43 -49 0
-43 -50 0
-44 -45 0
-44 -46 0
-44 -47 0
-44 -48 0
-44 -49 0
-44 -50 0
-45 -46 0
-45 -47 0
-45 -48 0
-45 -49 0
-45 -50 0
-46 -47 0
-46 -48 0
-46 -49 0
-46 -50 0
-47 -48 0
-47 -49 0
-47 -50 0
-48 -49 0
-48 -50 0
-49 -50 0
-51 -52 0
-51 -53 0
-51 -54 0
-51 -55 0
-51 -56 0
-51 -57 0
-51 -58 0
-51 -59 0
-51 -60 0
-52 -53 0
-52 -54 0
-52 -55 0
-52 -56 0
-52 -57 0
-52 -58 0
-52 -59 0
-52 -60 0
-53 -54 0
-53 -55 0
-53 -56 0
-53 -57 0
-53 -58 0
-53 -59 0
-53 -60 0
-54 -55 0
-54 -56 0
-54 -57 0
-54 -58 0
-54 -59 0
-54 -60 0
-55 -56 0
-55 -57 0
-55 -58 0
-55 -59 0
-55 -60 0
-56 -57 0
-56 -58 0
-56 -59 0
-56 -60 0
-57 -58 0
-57 -59 0
-57 -60 0
-58 -59 0
-58 -60 0
-59 -60 0
-61 -62 0
-61 -63 0
-61 -64 0
-61 -65 0
-61 -66 0
-61 -67 0
-61 -68 0
-61 -69 0
-61 -70 0
-62 -63 0
-62 -64 0
-62 -65 0
-62 -66 0
-62 -67 0
-62 -68 0
-62 -69 0
-62 -70 0
-63 -64 0
-63 -65 0
-63 -66 0
-63 -67 0
-63 -68 0
-63 -69 0
-63 -70 0
-64 -65 0
-64 -66 0
-64 -67 0
-64 -68 0
-64 -69 0
-64 -70 0
-65 -66 0
-65 -67 0
-65 -68 0
-65 -69 0
-65 -70 0
-66 -67 0
-66 -68 0
-66 -69 0
-66 -70 0
-67 -68 0
-67 -69 0
-67 -70 0
-68 -69 0
-68 -70 0
-69 -70 0
-71 -72 0
-71 -73 0
-71 -74 0
-71 -75 0
-71 -76 0
-71 -77 0
-71 -78 0
-71 -79 0
-71 -80 0
-72 -73 0
-72 -74 0
-72 -75 0
-72 -76 0
-72 -77 0
-72 -78 0
-72 -79 0
-72 -80 0
-73 -74 0
-73 -75 0
-73 -76 0
-73 -77 0
-73 -78 0
-73 -79 0
-73 -80 0
-74 -75 0
-74 -76 0
-74 -77 0
-74 -78 0
-74 -79 0
-74 -80 0
-75 -76 0
-75 -77 0
-75 -78 0
-75 -79 0
-75 -80 0
-76 -77 0
-76 -78 0
-76 -79 0
-76 -80 0
-77 -78 0
-77 -79 0
-77 -80 0
-78 -79 0
-78 -80 0
-79 -80 0
-81 -82 0
-81 -83 0
-81 -84 0
-81 -85 0
-81 -86 0
-81 -87 0
-81 -88 0
-81 -89 0
-81 -90 0
-82 -83 0
-82 -84 0
-82 -85 0
-82 -86 0
-82 -87 0
-82 -88 0
-82 -89 0
-82 -90 0
-83 -84 0
-83 -85 0
-83 -86 0
-83 -87 0
-83 -88 0
-83 -89 0
-83 -90 0
-84 -85 0
-84 -86 0
-84 -87 0
-84 -88 0
-84 -89 0
-84 -90 0
-85 -86 0
-85 -87 0
-85 -88 0
-85 -89 0
-85 -90 0
-86 -87 0
-86 -88 0
-86 -89 0
-86 -90 0
-87 -88 0
-87 -89 0
-87 -90 0
-88 -89 0
-88 -90 0
-89 -90 0
-91 -92 0
-91 -93 0
-91 -94 0
-91 -95 0
-91 -96 0
-91 -97 0
-91 -98 0
-91 -99 0
-91 -100 0
-92 -93 0
-92 -94 0
-92 -95 0
-92 -96 0
-92 -97 0
-92 -98 0
-92 -99 0
-92 -100 0
-93 -94 0
-93 -95 0
-93 -96 0
-93 -97 0
-93 -98 0
-93 -99 0
-93 -100 0
-94 -95 0
-94 -96 0
-94 -97 0
-94 -98 0
-94 -99 0
-94 -100 0
-95 -96 0
-95 -97 0
-95 -98 0
-95 -99 0
-95 -100 0
-96 -97 0
-96 -98 0
-96 -99 0
-96 -100 0
-97 -98 0
-97 -99 0
-97 -100 0
-98 -99 0
-98 -100 0
-99 -100 0
-101 -102 0
-101 -103 0
-101 -104 0
-101 -105 0
-101 -106 0
-101 -107 0
-101 -108 0
-101 -109 0
-101 -110 0
-102 -103 0
-102 -104 0
-102 -105 0
-102 -106 0
-102 -107 0
-102 -108 0
-102 -109 0
-102 -110 0
-103 -104 0
-103 -105 0
-103 -106 0
-103 -107 0
-103 -108 0
-103 -109 0
-103 -110 0
-104 -105 0
-104 -106 0
-104 -107 0
-104 -108 0
-104 -109 0
-104 -110 0
-105 -106 0
-105 -107 0
-105 -108 0
-105 -109 0
-105 -110 0
-106 -107 0
-106 -108 0
-106 -109 0
-106 -110 0
-107 -108 0
-107 -109 0
-107 -110 0
-108 -109 0
-108 -110 0
-109 -110 0
-111 -112 0
-111 -113 0
-111 -114 0
-111 -115 0
-111 -116 0
-111 -117 0
-111 -118 0
-111 -119 0
-111 -120 0
-112 -113 0
-112 -114 0
-112 -115 0
-112 -116 0
-112 -117 0
-112 -118 0
-112 -119 0
-112 -120 0
-113 -114 0
-113 -115 0
-113 -116 0
-113 -117 0
-113 -118 0
-113 -119 0
-113 -120 0
-114 -115 0
-114 -116 0
-114 -117 0
-114 -118 0
-114 -119 0
-114 -120 0
-115 -116 0
-115 -117 0
-115 -118 0
-115 -119 0
-115 -120 0
-116 -117 0
-116 -118 0
-116 -119 0
-116 -120 0
-117 -118 0
-117 -119 0
-117 -120 0
-118 -119 0
-118 -120 0
-119 -120 0
-121 -122 0
-121 -123 0
-121 -124 0
-121 -125 0
-121 -126 0
-121 -127 0
-121 -128 0
-121 -129 0
-121 -130 0
-122 -123 0
-122 -124 0
-122 -125 0
-122 -126 0
-122 -127 0
-122 -128 0
-122 -129 0
-122 -130 0
-123 -124 0
-123 -125 0
-123 -126 0
-123 -127 0
-123 -128 0
-123 -129 0
-123 -130 0
-124 -125 0
-124 -126 0
-124 -127 0
-124 -128 0
-124 -129 0
-124 -130 0
-125 -126 0
-125 -127 0
-125 -128 0
-125 -129 0
-125 -130 0
-126 -127 0
-126 -128 0
-126 -129 0
-126 -130 0
-127 -128 0
-127 -129 0
-127 -130 0
-128 -129 0
-128 -130 0
-129 -130 0
-131 -132 0
-131 -133 0
-131 -134 0
-131 -135 0
-131 -136 0
-131 -137 0
-131 -138 0
-131 -139 0
-131 -140 0
-132 -133 0
-132 -134 0
-132 -135 0
-132 -136 0
-132 -137 0
-132 -138 0
-132 -139 0
-132 -140 0
-133 -134 0
-133 -135 0
-133 -136 0
-133 -137 0
-133 -138 0
-133 -139 0
-133 -140 0
-134 -135 0
-134 -136 0
-134 -137 0
-134 -138 0
-134 -139 0
-134 -140 0
-135 -136 0
-135 -137 0
-135 -138 0
-135 -139 0
-135 -140 0
-136 -137 0
-136 -138 0
-136 -139 0
-136 -140 0
-137 -138 0
-137 -139 0
-137 -140 0
-138 -139 0
-138 -140 0
-139 -140 0
-141 -142 0
-141 -143 0
-141 -144 0
-141 -145 0
-141 -146 0
-141 -147 0
-141 -148 0
-141 -149 0
-141 -150 0
-142 -143 0
-142 -144 0
-142 -145 0
-142 -146 0
-142 -147 0
-142 -148 0
-142 -149 0
-142 -150 0
-143 -144 0
-143 -145 0
-143 -146 0
-143 -147 0
-143 -148 0
-143 -149 0
-143 -150 0
-144 -145 0
-144 -146 0
-144 -147 0
-144 -148 0
-144 -149 0
-144 -150 0
-145 -146 0
-145 -147 0
-145 -148 0
-145 -149 0
-145 -150 0
-146 -147 0
-146 -148 0
-146 -149 0
-146 -150 0
-147 -148 0
-147 -149 0
-147 -150 0
-148 -149 0
-148 -150 0
-149 -150 0
-151 -152 0
-151 -153 0
-151 -154 0
-151 -155 0
-151 -156 0
-151 -157 0
-151 -158 0
-151 -159 0
-151 -160 0
-152 -153 0
-152 -154 0
-152 -155 0
-152 -156 0
-152 -157 0
-152 -158 0
-152 -159 0
-152 -160 0
-153 -154 0
-153 -155 0
-153 -156 0
-153 -157 0
-153 -158 0
-153 -159 0
-153 -160 0
-154 -155 0
-154 -156 0
-154 -157 0
-154 -158 0
-154 -159 0
-154 -160 0
-155 -156 0
-155 -157 0
-155 -158 0
-155 -159 0
-155 -160 0
-156 -157 0
-156 -158 0
-156 -159 0
-156 -160 0
-157 -158 0
-157 -159 0
-157 -160 0
-158 -159 0
-158 -160 0
-159 -160 0
-161 -162 0
-161 -163 0
-161 -164 0
-161 -165 0
-161 -166 0
-161 -167 0
-161 -168 0
-161 -169 0
-161 -170 0
-162 -163 0
-162 -164 0
-162 -165 0
-162 -166 0
-162 -167 0
-162 -168 0
-162 -169 0
-162 -170 0
-163 -164 0
-163 -165 0
-163 -166 0
-163 -167 0
-163 -168 0
-163 -169 0
-163 -170 0
-164 -165 0
-164 -166 0
-164 -167 0
-164 -168 0
-164 -169 0
-164 -170 0
-165 -166 0
-165 -167 0
-165 -168 0
-165 -169 0
-165 -170 0
-166 -167 0
-166 -168 0
-166 -169 0
-166 -170 0
-167 -168 0
-167 -169 0
-167 -170 0
-168 -169 0
-168 -170 0
-169 -170 0
-171 -172 0
-171 -173 0
-171 -174 0
-171 -175 0
-171 -176 0
-171 -177 0
-171 -178 0
-171 -179 0
-171 -180 0
-172 -173 0
-172 -174 0
-172 -175 0
-172 -176 0
-172 -177 0
-172 -178 0
-172 -179 0
-172 -180 0
-173 -174 0
-173 -175 0
-173 -176 0
-173 -177 0
-173 -178 0
-173 -179 0
-173 -180 0
-174 -175 0
-174 -176 0
-174 -177 0
-174 -178 0
-174 -179 0
-174 -180 0
-175 -176 0
-175 -177 0
-175 -178 0
-175 -179 0
-175 -180 0
-176 -177 0
-176 -178 0
-176 -179 0
-176 -180 0
-177 -178 0
-177 -179 0
-177 -180 0
-178 -179 0
-178 -180 0
-179 -180 0
-181 -182 0
-181 -183 0
-181 -184 0
-181 -185 0
-181 -186 0
-181 -187 0
-181 -188 0
-181 -189 0
-181 -190 0
-182 -183 0
-182 -184 0
-182 -185 0
-182 -186 0
-182 -187 0
-182 -188 0
-182 -189 0
-182 -190 0
-183 -184 0
-183 -185 0
-183 -186 0
-183 -187 0
-183 -188 0
-183 -189 0
-183 -190 0
-184 -185 0
-184 -186 0
-184 -187 0
-184 -188 0
-184 -189 0
-184 -190 0
-185 -186 0
-185 -187 0
-185 -188 0
-185 -189 0
-185 -190 0
-186 -187 0
-186 -188 0
-186 -189 0
-186 -190 0
-187 -188 0
-187 -189 0
-187 -190 0
-188 -189 0
-188 -190 0
-189 -190 0
1 11 21 31 41 51 61 71 81 91 101 111 121 131 141 151 161 171 181 0
2 12 22 32 42 52 62 72 82 92 102 112 122 132 142 152 162 172 182 0
3 13 23 33 43 53 63 73 83 93 103 113 123 133 143 153 163 173 183 0
4 14 24 34 44 54 64 74 84 94 104 114 124 134 144 154 164 174 184 0
5 15 25 35 45 55 65 75 85 95 105 115 125 135 145 155 165 175 185 0
6 16 26 36 46 56 66 76 86 96 106 116 126 136 146 156 166 176 186 0
7 17 27 37 47 57 67 77 87 97 107 117 127 137 147 157 167 177 187 0
8 18 28 38 48 58 68 78 88 98 108 118 128 138 148 158 168 178 188 0
9 19 29 39 49 59 69 79 89 99 109 119 129 139 149 159 169 179 189 0
10 20 30 40 50 60 70 80 90 100 110 120 130 140 150 160 170 180 190 0
1 20 29 38 47 56 65 74 83 92 101 120 129 138 147 156 165 174 183 0
2 11 30 39 48 57 66 75 84 93 102 111 130 139 148 157 166 175 184 0
3 12 21 40 49 58 67 76 85 94 103 112 121 140 149 158 167 176 185 0
4 13 22 31 50 59 68 77 86 95 104 113 122 131 150 159 168 177 186 0
5 14 23 32 41 60 69 78 87 96 105 114 123 132 141 160 169 178 187 0
6 15 24 33 42 51 70 79 88 97 106 115 124 133 142 151 170 179 188 0
7 16 25 34 43 52 61 80 89 98 107 116 125 134 143 152 161 180 189 0
8 17 26 35 44 53 62 71 90 99 108 117 126 135 144 153 162 171 190 0
9 18 27 36 45 54 63 72 81 100 109 118 127 136 145 154 163 172 181 0
10 19 28 37 46 55 64 73 82 91 110 119 128 137 146 155 164 173 182 0
1 19 27 35 43 51 69 77 85 93 101 119 127 135 143 151 169 177 185 0
2 20 28 36 44 52 70 78 86 94 102 120 128 136 144 152 170 178 186 0
3 11 29 37 45 53 61 79 87 95 103 111 129 137 145 153 161 179 187 0
4 12 30 38 46 54 62 80 88 96 104 112 130 138 146 154 162 180 188 0
5 13 21 39 47 55 63 71 89 97 105 113 121 139 147 155 163 171 189 0
6 14 22 40 48 56 64 72 90 98 106 114 122 140 148 156 164 172 190 0
7 15 23 31 49 57 65 73 81 99 107 115 123 131 149 157 165 173 181 0
8 16 24 32 50 58 66 74 82 100 108 116 124 132 150 158 166 174 182 0
9 17 25 33 41 59 67 75 83 91 109 117 125 133 141 159 167 175 183 0
10 18 26 34 42 60 68 76 84 92 110 118 126 134 142 160 168 176 184 0
1 18 25 32 49 56 63 80 87 94 101 118 125 132 149 156 163 180 187 0
2 19 26 33 50 57 64 71 88 95 102 119 126 133 150 157 164 171 188 0
3 20 27 34 41 58 65 72 89 96 103 120 127 134 141 158 165 172 189 0
4 11 28 35 42 59 66 73 90 97 104 111 128 135 142 159 166 173 190 0
5 12 29 36 43 60 67 74 81 98 105 112 129 136 143 160 167 174 181 0
6 13 30 37 44 51 68 75 82 99 106 113 130 137 144 151 168 175 182 0
7 14 21 38 45 52 69 76 83 100 107 114 121 138 145 152 169 176 183 0
8 15 22 39 46 53 70 77 84 91 108 115 122 139 146 153 170 177 184 0
9 16 23 40 47 54 61 78 85 92 109 116 123 140 147 154 161 178 185 0
10 17 24 31 48 55 62 79 86 93 110 117 124 131 148 155 162 179 186 0
1 17 23 39 45 51 67 73 89 95 101 117 123 139 145 151 167 173 189 0
2 18 24 40 46 52 68 74 90 96 102 118 124 140 146 152 168 174 190 0
3 19 25 31 47 53 69 75 81 97 103 119 125 131 147 153 169 175 181 0
4 20 26 32 48 54 70 76 82 98 104 120 126 132 148 154 170 176 182 0
5 11 27 33 49 55 61 77 83 99 105 111 127 133 149 155 161 177 183 0
6 12 28 34 50 56 62 78 84 100 106 112 128 134 150 156 162 178 184 0
7 13 29 35 41 57 63 79 85 91 107 113 129 135 141 157 163 179 185 0
8 14 30 36 42 58 64 80 86 92 108 114 130 136 142 158 164 180 186 0
9 15 21 37 43 59 65 71 87 93 109 115 121 137 143 159 165 171 187 0
10 16 22 38 44 60 66 72 88 94 110 116 122 138 144 160 166 172 188 0
1 16 21 36 41 56 61 76 81 96 101 116 121 136 141 156 161 176 181 0
2 17 22 37 42 57 62 77 82 97 102 117 122 137 142 157 162 177 182 0
3 18 23 38 43 58 63 78 83 98 103 118 123 138 143 158 163 178 183 0
4 19 24 39 44 59 64 79 84 99 104 119 124 139 144 159 164 179 184 0
5 20 25 40 45 60 65 80 85 100 105 120 125 140 145 160 165 180 185 0
6 11 26 31 46 51 66 71 86 91 106 111 126 131 146 151 166 171 186 0
7 12 27 32 47 52 67 72 87 92 107 112 127 132 147 152 167 172 187 0
8 13 28 33 48 53 68 73 88 93 108 113 128 133 148 153 168 173 188 0
9 14 29 34 49 54 69 74 89 94 109 114 129 134 149 154 169 174 189 0
10 15 30 35 50 55 70 75 90 95 110 115 130 135 150 155 170 175 190 0
1 15 29 33 47 51 65 79 83 97 101 115 129 133 147 151 165 179 183 0
2 16 30 34 48 52 66 80 84 98 102 116 130 134 148 152 166 180 184 0
3 17 21 35 49 53 67 71 85 99 103 117 121 135 149 153 167 171 185 0
4 18 22 36 50 54 68 72 86 100 104 118 122 136 150 154 168 172 186 0
5 19 23 37 41 55 69 73 87 91 105 119 123 137 141 155 169 173 187 0
6 20 24 38 42 56 70 74 88 92 106 120 124 138 142 156 170 174 188 0
7 11 25 39 43 57 61 75 89 93 107 111 125 139 143 157 161 175 189 0
8 12 26 40 44 58 62 76 90 94 108 112 126 140 144 158 162 176 190 0
9 13 27 31 45 59 63 77 81 95 109 113 127 131 145 159 163 177 181 0
10 14 28 32 46 60 64 78 82 96 110 114 128 132 146 160 164 178 182 0
1 14 27 40 43 56 69 72 85 98 101 114 127 140 143 156 169 172 185 0
2 15 28 31 44 57 70 73 86 99 102 115 128 131 144 157 170 173 186 0
3 16 29 32 45 58 61 74 87 100 103 116 129 132 145 158 161 174 187 0
4 17 30 33 46 59 62 75 88 91 104 117 130 133 146 159 162 175 188 0
5 18 21 34 47 60 63 76 89 92 105 118 121 134 147 160 163 176 189 0
6 19 22 35 48 51 64 77 90 93 106 119 122 135 148 151 164 177 190 0
7 20 23 36 49 52 65 78 81 94 107 120 123 136 149 152 165 178 181 0
8 11 24 37 50 53 66 79 82 95 108 111 124 137 150 153 166 179 182 0
9 12 25 38 41 54 67 80 83 96 109 112 125 138 141 154 167 180 183 0
10 13 26 39 42 55 68 71 84 97 110 113 126 139 142 155 168 171 184 0
1 13 25 37 49 51 63 75 87 99 101 113 125 137 149 151 163 175 187 0
2 14 26 38 50 52 64 76 88 100 102 114 126 138 150 152 164 176 188 0
3 15 27 39 41 53 65 77 89 91 103 115 127 139 141 153 165 177 189 0
4 16 28 40 42 54 66 78 90 92 104 116 128 140 142 154 166 178 190 0
5 17 29 31 43 55 67 79 81 93 105 117 129 131 143 155 167 179 181 0
6 18 30 32 44 56 68 80 82 94 106 118 130 132 144 156 168 180 182 0
7 19 21 33 45 57 69 71 83 95 107 119 121 133 145 157 169 171 183 0
8 20 22 34 46 58 70 72 84 96 108 120 122 134 146 158 170 172 184 0
9 11 23 35 47 59 61 73 85 97 109 111 123 135 147 159 161 173 185 0
10 12 24 36 48 60 62 74 86 98 110 112 124 136 148 160 162 174 186 0
1 12 23 34 45 56 67 78 89 100 101 112 123 134 145 156 167 178 189 0
2 13 24 35 46 57 68 79 90 91 102 113 124 135 146 157 168 179 190 0
3 14 25 36 47 58 69 80 81 92 103 114 125 136 147 158 169 180 181 0
4 15 26 37 48 59 70 71 82 93 104 115 126 137 148 159 170 171 182 0
5 16 27 38 49 60 61 72 83 94 105 116 127 138 149 160 161 172 183 0
6 17 28 39 50 51 62 73 84 95 106 117 128 139 150 151 162 173 184 0
7 18 29 40 41 52 63 74 85 96 107 118 129 140 141 152 163 174 185 0
8 19 30 31 42 53 64 75 86 97 108 119 130 131 142 153 164 175 186 0
9 20 21 32 43 54 65 76 87 98 109 120 121 132 143 154 165 176 187 0
10 11 22 33 44 55 66 77 88 99 110 111 122 133 144 155 166 177 188 0
